# Objective value = -1.7402075946093063e+01
x_Cyr1_Act1 0
x_Act1_Cof1 0
x_Cof1_Prm15 1
x_Cyr1_Srv2 1
x_Srv2_Cof1 1
x_Duf1_Ubi4 1
x_Ubi4_Cdc48 0
x_Cdc48_Rad23 0
x_Ubi4_Ddi1 0
x_Ddi1_Rad23 0
x_Ubi4_Dsk2 0
x_Dsk2_Rad23 0
x_Ubi4_Rad23 0
x_Ubi4_Rpn1 1
x_Rpn1_Rad23 1
x_Ubi4_Rpn10 0
x_Rpn10_Rad23 0
x_Ubi4_Rpn11 0
x_Rpn11_Rad23 0
x_Ubi4_Rps31 0
x_Rps31_Rad23 0
x_Ubi4_Rpt1 0
x_Rpt1_Rad23 1
x_Ubi4_Rpt5 0
x_Rpt5_Rad23 0
x_Ubi4_Rpt6 0
x_Rpt6_Rad23 0
x_Ubi4_Ufd2 0
x_Ufd2_Rad23 0
x_Ede1_Ent1 1
x_Ent1_Chc1 1
x_Chc1_Ent5 1
x_Ent1_Ubi4 0
x_Ede1_Ent2 1
x_Ent2_Chc1 1
x_Ent2_Ubi4 0
x_Ede1_Rps31 0
x_Rps31_Cdc48 0
x_Rps31_Dsk2 0
x_Rps31_Rpn1 0
x_Rps31_Rpn10 0
x_Rps31_Rpn11 0
x_Rps31_Rpt1 1
x_Rps31_Rpt5 0
x_Rps31_Rpt6 0
x_Rps31_Ubi4 0
x_Ede1_Ubi4 0
x_Ede1_Vps27 1
x_Vps27_Chc1 0
x_Vps27_Rps31 0
x_Vps27_Ubi4 1
x_Fun12_Asc1 1
x_Asc1_Rps31 1
x_Asc1_Ubi4 0
x_Fun12_Gcd11 0
x_Gcd11_Rps31 0
x_Fun12_Nip1 0
x_Nip1_Rpn11 0
x_Nip1_Rps31 0
x_Fun12_Prt1 1
x_Prt1_Rps31 1
x_Fun12_Rpg1 1
x_Rpg1_Rps31 1
x_Fun12_Rpl10 1
x_Rpl10_Rps31 1
x_Rpl10_Ubi4 0
x_Fun12_Rpl17a 1
x_Rpl17a_Rps31 1
x_Rpl17a_Ubi4 0
x_Fun12_Rpl17b 0
x_Rpl17b_Rps31 0
x_Rpl17b_Ubi4 0
x_Fun12_Rpl19b 1
x_Rpl19b_Rps31 1
x_Rpl19b_Ubi4 0
x_Fun12_Rpl25 1
x_Rpl25_Rps31 1
x_Rpl25_Ubi4 0
x_Fun12_Rpl28 0
x_Rpl28_Rps31 0
x_Rpl28_Ubi4 0
x_Fun12_Rpl2a 0
x_Rpl2a_Rps31 0
x_Rpl2a_Ubi4 0
x_Fun12_Rpl2b 0
x_Rpl2b_Rps31 0
x_Rpl2b_Ubi4 0
x_Fun12_Rpl3 1
x_Rpl3_Rps31 1
x_Rpl3_Ubi4 0
x_Fun12_Rpl30 1
x_Rpl30_Rps31 1
x_Rpl30_Ubi4 0
x_Fun12_Rpl32 1
x_Rpl32_Rps31 1
x_Rpl32_Ubi4 0
x_Fun12_Rpl34a 0
x_Rpl34a_Rps31 0
x_Rpl34a_Ubi4 0
x_Fun12_Rpl35a 0
x_Rpl35a_Rps31 0
x_Rpl35a_Ubi4 0
x_Fun12_Rpl35b 1
x_Rpl35b_Rps31 1
x_Rpl35b_Ubi4 0
x_Fun12_Rpl37a 0
x_Rpl37a_Rps31 0
x_Fun12_Rpl38 0
x_Rpl38_Rps31 0
x_Rpl38_Ubi4 0
x_Fun12_Rpl5 1
x_Rpl5_Rps31 1
x_Rpl5_Ubi4 0
x_Fun12_Rpl7a 1
x_Rpl7a_Rps31 1
x_Fun12_Rps0a 0
x_Rps0a_Rps31 0
x_Rps0a_Ubi4 0
x_Fun12_Rps0b 0
x_Rps0b_Rps31 0
x_Rps0b_Ubi4 0
x_Fun12_Rps10a 0
x_Rps10a_Rps31 0
x_Rps10a_Ubi4 0
x_Fun12_Rps11a 0
x_Rps11a_Rps31 0
x_Rps11a_Ubi4 0
x_Fun12_Rps11b 1
x_Rps11b_Rps31 1
x_Rps11b_Ubi4 0
x_Fun12_Rps12 0
x_Rps12_Rps31 0
x_Rps12_Ubi4 0
x_Fun12_Rps13 0
x_Rps13_Rps31 0
x_Rps13_Ubi4 0
x_Fun12_Rps14a 0
x_Rps14a_Rps31 0
x_Rps14a_Ubi4 0
x_Fun12_Rps14b 1
x_Rps14b_Rps31 1
x_Rps14b_Ubi4 0
x_Fun12_Rps15 0
x_Rps15_Rps31 0
x_Rps15_Ubi4 0
x_Fun12_Rps16a 0
x_Rps16a_Rps31 0
x_Rps16a_Ubi4 0
x_Fun12_Rps16b 1
x_Rps16b_Rps31 1
x_Rps16b_Ubi4 0
x_Fun12_Rps17a 0
x_Rps17a_Rps31 0
x_Rps17a_Ubi4 0
x_Fun12_Rps17b 1
x_Rps17b_Rps31 1
x_Rps17b_Ubi4 0
x_Fun12_Rps18a 1
x_Rps18a_Rps31 1
x_Fun12_Rps18b 0
x_Rps18b_Rps31 0
x_Rps18b_Ubi4 0
x_Fun12_Rps19a 0
x_Rps19a_Rps31 0
x_Rps19a_Ubi4 0
x_Fun12_Rps1a 1
x_Rps1a_Rps31 1
x_Rps1a_Ubi4 0
x_Fun12_Rps1b 1
x_Rps1b_Rps31 1
x_Rps1b_Ubi4 0
x_Fun12_Rps2 0
x_Rps2_Rps31 0
x_Rps2_Ubi4 0
x_Fun12_Rps20 0
x_Rps20_Rps31 0
x_Rps20_Ubi4 0
x_Fun12_Rps22a 0
x_Rps22a_Rps31 0
x_Fun12_Rps23a 0
x_Rps23a_Rps31 0
x_Rps23a_Ubi4 0
x_Fun12_Rps23b 0
x_Rps23b_Rps31 0
x_Rps23b_Ubi4 0
x_Fun12_Rps24a 1
x_Rps24a_Rps31 1
x_Rps24a_Ubi4 0
x_Fun12_Rps24b 0
x_Rps24b_Rps31 0
x_Rps24b_Ubi4 0
x_Fun12_Rps25a 0
x_Rps25a_Rps31 0
x_Rps25a_Ubi4 0
x_Fun12_Rps26a 0
x_Rps26a_Rps31 0
x_Rps26a_Ubi4 0
x_Fun12_Rps26b 1
x_Rps26b_Rps31 1
x_Rps26b_Ubi4 0
x_Fun12_Rps27a 0
x_Rps27a_Rps31 0
x_Rps27a_Ubi4 0
x_Fun12_Rps28a 0
x_Rps28a_Rps31 0
x_Rps28a_Ubi4 0
x_Fun12_Rps28b 0
x_Rps28b_Rps31 0
x_Rps28b_Ubi4 0
x_Fun12_Rps29a 1
x_Rps29a_Rps31 1
x_Rps29a_Ubi4 0
x_Fun12_Rps3 1
x_Rps3_Rps31 1
x_Rps3_Ubi4 0
x_Fun12_Rps30a 0
x_Rps30a_Rps31 0
x_Fun12_Rps30b 0
x_Rps30b_Rps31 0
x_Fun12_Rps31 0
x_Fun12_Rps5 0
x_Rps5_Rpn11 0
x_Rps5_Rps31 0
x_Rps5_Ubi4 0
x_Fun12_Rps6a 0
x_Rps6a_Rps31 0
x_Fun12_Rps6b 1
x_Rps6b_Rps31 1
x_Rps6b_Ubi4 0
x_Fun12_Rps7a 1
x_Rps7a_Rps31 1
x_Rps7a_Ubi4 0
x_Fun12_Rps8a 1
x_Rps8a_Rps31 1
x_Rps8a_Ubi4 0
x_Fun12_Rps8b 0
x_Rps8b_Rps31 0
x_Rps8b_Ubi4 0
x_Fun12_Rps9a 0
x_Rps9a_Rps31 0
x_Rps9a_Ubi4 0
x_Fun12_Rps9b 1
x_Rps9b_Rps31 1
x_Rps9b_Ubi4 0
x_Fun12_Sui1 1
x_Sui1_Rps31 1
x_Fun12_Tif11 0
x_Tif11_Rps31 0
x_Fun12_Tif35 1
x_Tif35_Rps31 1
x_Fun12_Tif5 0
x_Tif5_Rps31 0
x_Sup35_Dom34 1
x_Dom34_Rps31 1
x_Sup35_Ssa1 0
x_Ssa1_Cdc48 0
x_Swe1_Chk1 1
x_Chk1_Cdc9 1
x_Cdc9_Rad23 1
y_Cyr1 1
y_Act1 0
y_Cof1 1
y_Srv2 1
y_Duf1 1
y_Ubi4 1
y_Cdc48 0
y_Ddi1 0
y_Dsk2 0
y_Rpn1 1
y_Rpn10 0
y_Rpn11 0
y_Rps31 1
y_Rpt1 1
y_Rpt5 0
y_Rpt6 0
y_Ufd2 0
y_Ede1 1
y_Ent1 1
y_Chc1 1
y_Ent2 1
y_Vps27 1
y_Fun12 1
y_Asc1 1
y_Gcd11 0
y_Nip1 0
y_Prt1 1
y_Rpg1 1
y_Rpl10 1
y_Rpl17a 1
y_Rpl17b 0
y_Rpl19b 1
y_Rpl25 1
y_Rpl28 0
y_Rpl2a 0
y_Rpl2b 0
y_Rpl3 1
y_Rpl30 1
y_Rpl32 1
y_Rpl34a 0
y_Rpl35a 0
y_Rpl35b 1
y_Rpl37a 0
y_Rpl38 0
y_Rpl5 1
y_Rpl7a 1
y_Rps0a 0
y_Rps0b 0
y_Rps10a 0
y_Rps11a 0
y_Rps11b 1
y_Rps12 0
y_Rps13 0
y_Rps14a 0
y_Rps14b 1
y_Rps15 0
y_Rps16a 0
y_Rps16b 1
y_Rps17a 0
y_Rps17b 1
y_Rps18a 1
y_Rps18b 0
y_Rps19a 0
y_Rps1a 1
y_Rps1b 1
y_Rps2 0
y_Rps20 0
y_Rps22a 0
y_Rps23a 0
y_Rps23b 0
y_Rps24a 1
y_Rps24b 0
y_Rps25a 0
y_Rps26a 0
y_Rps26b 1
y_Rps27a 0
y_Rps28a 0
y_Rps28b 0
y_Rps29a 1
y_Rps3 1
y_Rps30a 0
y_Rps30b 0
y_Rps5 0
y_Rps6a 0
y_Rps6b 1
y_Rps7a 1
y_Rps8a 1
y_Rps8b 0
y_Rps9a 0
y_Rps9b 1
y_Sui1 1
y_Tif11 0
y_Tif35 1
y_Tif5 0
y_Sup35 1
y_Dom34 1
y_Ssa1 0
y_Swe1 1
y_Chk1 1
y_Cdc9 1
y_Prm15 1
y_Rad23 1
y_Ent5 1
